certificates/rado_a13_c166_N34.cnf
c Rad2 upper bound instance: x1 + 13*x2 - x3 = 166, interval [1,34]
p cnf 34 178
1 4 13 0
-1 -4 -13 0
1 14 17 0
-1 -14 -17 0
1 15 30 0
-1 -15 -30 0
2 5 13 0
-2 -5 -13 0
2 14 18 0
-2 -14 -18 0
2 15 31 0
-2 -15 -31 0
3 6 13 0
-3 -6 -13 0
3 14 19 0
-3 -14 -19 0
3 15 32 0
-3 -15 -32 0
4 7 13 0
-4 -7 -13 0
4 14 20 0
-4 -14 -20 0
4 15 33 0
-4 -15 -33 0
5 8 13 0
-5 -8 -13 0
5 14 21 0
-5 -14 -21 0
5 15 34 0
-5 -15 -34 0
6 9 13 0
-6 -9 -13 0
6 14 22 0
-6 -14 -22 0
7 10 13 0
-7 -10 -13 0
7 14 23 0
-7 -14 -23 0
8 11 13 0
-8 -11 -13 0
8 14 24 0
-8 -14 -24 0
9 12 13 0
-9 -12 -13 0
9 14 25 0
-9 -14 -25 0
10 13 0
-10 -13 0
10 14 26 0
-10 -14 -26 0
1 11 12 0
-1 -11 -12 0
11 13 14 0
-11 -13 -14 0
11 14 27 0
-11 -14 -27 0
2 12 0
-2 -12 0
12 13 15 0
-12 -13 -15 0
12 14 28 0
-12 -14 -28 0
3 12 13 0
-3 -12 -13 0
13 16 0
-13 -16 0
13 14 29 0
-13 -14 -29 0
4 12 14 0
-4 -12 -14 0
13 14 17 0
-13 -14 -17 0
14 30 0
-14 -30 0
5 12 15 0
-5 -12 -15 0
13 15 18 0
-13 -15 -18 0
14 15 31 0
-14 -15 -31 0
6 12 16 0
-6 -12 -16 0
13 16 19 0
-13 -16 -19 0
14 16 32 0
-14 -16 -32 0
7 12 17 0
-7 -12 -17 0
13 17 20 0
-13 -17 -20 0
14 17 33 0
-14 -17 -33 0
8 12 18 0
-8 -12 -18 0
13 18 21 0
-13 -18 -21 0
14 18 34 0
-14 -18 -34 0
9 12 19 0
-9 -12 -19 0
13 19 22 0
-13 -19 -22 0
10 12 20 0
-10 -12 -20 0
13 20 23 0
-13 -20 -23 0
11 12 21 0
-11 -12 -21 0
13 21 24 0
-13 -21 -24 0
12 22 0
-12 -22 0
13 22 25 0
-13 -22 -25 0
12 13 23 0
-12 -13 -23 0
13 23 26 0
-13 -23 -26 0
1 11 24 0
-1 -11 -24 0
12 14 24 0
-12 -14 -24 0
13 24 27 0
-13 -24 -27 0
2 11 25 0
-2 -11 -25 0
12 15 25 0
-12 -15 -25 0
13 25 28 0
-13 -25 -28 0
3 11 26 0
-3 -11 -26 0
12 16 26 0
-12 -16 -26 0
13 26 29 0
-13 -26 -29 0
4 11 27 0
-4 -11 -27 0
12 17 27 0
-12 -17 -27 0
13 27 30 0
-13 -27 -30 0
5 11 28 0
-5 -11 -28 0
12 18 28 0
-12 -18 -28 0
13 28 31 0
-13 -28 -31 0
6 11 29 0
-6 -11 -29 0
12 19 29 0
-12 -19 -29 0
13 29 32 0
-13 -29 -32 0
7 11 30 0
-7 -11 -30 0
12 20 30 0
-12 -20 -30 0
13 30 33 0
-13 -30 -33 0
8 11 31 0
-8 -11 -31 0
12 21 31 0
-12 -21 -31 0
13 31 34 0
-13 -31 -34 0
9 11 32 0
-9 -11 -32 0
12 22 32 0
-12 -22 -32 0
10 11 33 0
-10 -11 -33 0
12 23 33 0
-12 -23 -33 0
11 34 0
-11 -34 0
12 24 34 0
-12 -24 -34 0
