certificates/rado_a13_c166_N34.drat
13 -32 11 0
-32 -33 -34 0
-14 -9 11 0
14 11 0
d 14 27 11 0
-34 0
11 0
-14 0
30 0
18 0
-7 0
23 0
13 0
-10 0
-16 0
-8 0
-33 0
-27 0
-21 0
-15 0
-26 0
-12 0
-20 0
0
